data;

param num_top:=6;

#nodes and edges of the physical network
param n := 10;

set E := (1,2) (1,3) (1,7) (2,4) (2,7) (3,5) (4,8) (5,6) (5,7) (6,7) (6,9) (7,8) (7,9) (8,10) (9,10) ;

#nodes and edges of the virtual networks
set Nl[1] := 7 6 4 9 ;
set Nl[2] := 9 1 6 3 ;
set Nl[3] := 1 5 7 4 ;
set Nl[4] := 4 5 9 3 ;
set Nl[5] := 8 3 9 7 ;
set Nl[6] := 9 1 7 4 ;

set El[1] := (6,7) (4,6) (4,9) (7,9) (4,7) (6,9) ;
set El[2] := (1,9) (1,6) (3,6) (3,9) (1,3) (6,9) ;
set El[3] := (1,5) (5,7) (4,7) (1,4) (1,7) (4,5) ;
set El[4] := (4,5) (5,9) (3,9) (3,4) (3,5) (4,9) ;
set El[5] := (3,8) (3,9) (7,9) (7,8) (8,9) (3,7) ;
set El[6] := (1,9) (1,7) (4,7) (4,9) (7,9) (1,4) ;
